0 415 392
1 1118 570
2 854 1193
3 541 1914
4 1103 2667
5 1341 2210
6 1326 1703
7 1849 437
8 2004 1185
9 2102 1956
10 2194 2424
11 2490 1529
12 2516 567
13 3125 281
14 3120 1332
15 2711 2035
16 3027 2585
17 3601 2599
18 3572 2104
19 3619 849
20 3896 294
21 4576 399
22 4488 677
23 4239 1116
24 4106 1503
25 4621 1481
26 4629 2025
27 4392 2431
28 4775 2580
29 4052 2755